25 50
1 2 2
1 6 2
2 3 4
2 7 1
3 4 1
3 8 2
4 5 1
4 9 1
5 10 5
6 7 4
6 11 2
7 8 2
7 12 5
8 9 1
8 13 4
9 10 4
9 14 3
10 15 1
11 12 3
11 16 1
12 13 1
12 17 5
13 14 5
13 18 1
14 15 2
14 19 1
15 20 2
16 17 5
16 21 4
17 18 3
17 22 1
18 19 3
18 23 1
19 20 1
19 24 4
20 25 2
21 22 4
22 23 5
23 24 3
24 25 5
1 21 4
2 22 2
3 23 1
4 24 5
5 25 2
1 5 4
6 10 2
11 15 1
16 20 4
21 25 1
